sat
(:added-eqs              84
 :arith-eq-adapter       23
 :arith-conflicts        5
 :arith-diseq            7
 :arith-fixed-eqs        16
 :arith-grobner-calls    2
 :arith-lower            30
 :arith-make-feasible    21
 :arith-max-columns      232
 :arith-max-rows         30
 :arith-nla-add-bounds   1
 :arith-nla-lemmas       2
 :arith-nla-propagate-eq 26
 :arith-nra-calls        1
 :arith-offset-eqs       3
 :arith-upper            148
 :binary-propagations    177
 :card2bv-rewrites       8
 :conflicts              4
 :decisions              162
 :del-clause             24
 :elim-unconstrained     3
 :final-checks           3
 :max-memory             20.04
 :memory                 18.47
 :mk-bool-var            334
 :mk-clause              61
 :mk-clause-binary       287
 :num-allocs             1055010
 :num-checks             1
 :propagations           200
 :rlimit-count           137936
 :time                   0.03
 :total-time             0.05)
